 num_data_structures = 16;
 num_memory_banks = 4;
 p = 4;
 conflicts = 16;
 
 s = [60, 40, 45, 35, 40, 50, 45, 55, 50, 40, 25, 56, 73, 53, 42, 88];
 c = [80, 80, 80, 80];
 e = [6, 4, 4, 3, 4, 5, 4, 5, 5, 4, 2, 5, 7, 5, 4, 8];
 d = [4, 4, 6, 4, 6, 6, 6, 4, 2, 4, 6, 6, 6, 4, 2, 4];
 
 A = [13, 8, 2, 6, 0, 2, 4, 6, 2, 9, 3, 4, 13, 15, 9, 7];
 B = [7, 0, 4, 1, 1, 3, 5, 1, 2, 0, 5, 12, 14, 0, 9, 1];